63
Time limit set to 60 seconds
Running CP solver
/home/omastto1/General-Optimization-Solver/src/solvers/mmrcpsp.py:42(stream:108:6): Warning: Cumulative expression 'pulse': height is zero, expression is zero everywhere.
                                                                                               VarCumulAtom_149 = pulse(task_0_mode_0, 0)
/home/omastto1/General-Optimization-Solver/src/solvers/mmrcpsp.py:42(stream:108:1255): Warning: Cumulative expression 'pulse': height is zero, expression is zero everywhere.
                                                                                                  VarCumulAtom_198 = pulse(task_17_mode_0, 0)
/home/omastto1/General-Optimization-Solver/src/solvers/mmrcpsp.py:42(stream:109:6): Warning: Cumulative expression 'pulse': height is zero, expression is zero everywhere.
                                                                                               VarCumulAtom_202 = pulse(task_0_mode_0, 0)
/home/omastto1/General-Optimization-Solver/src/solvers/mmrcpsp.py:42(stream:109:1253): Warning: Cumulative expression 'pulse': height is zero, expression is zero everywhere.
                                                                                                  VarCumulAtom_251 = pulse(task_17_mode_0, 0)
 ! --------------------------------------------------- CP Optimizer 20.1.0.0 --
 ! Minimization problem - 69 variables, 51 constraints
 ! TimeLimit            = 60
 ! Workers              = 14
 ! LogVerbosity         = Terse
 ! Initial process time : 0.00s (0.00s extraction + 0.00s propagation)
 !  . Log search space  : 161.6 (before), 161.6 (after)
 !  . Memory usage      : 754.6 kB (before), 754.6 kB (after)
 ! Using parallel search with 14 workers.
 ! ----------------------------------------------------------------------------
 !          Best Branches  Non-fixed    W       Branch decision
                        0         69                 -
 + New bound is 22
 ! Using iterative diving.
 ! Using temporal relaxation.
 *            44       46  0.60s        1      (gap is 50.00%)
 *            32      117  0.60s        1      (gap is 31.25%)
 *            31      277  0.60s        1      (gap is 29.03%)
 *            27      332  0.60s        1      (gap is 18.52%)
 *            26      348  0.60s        1      (gap is 15.38%)
 *            25      378  0.60s        1      (gap is 12.00%)
 *            23     1261  0.60s        1      (gap is 4.35%)
 *            22     1697  0.60s        1      (gap is 0.00%)
 ! ----------------------------------------------------------------------------
 ! Search completed, 8 solutions found.
 ! Best objective         : 22 (optimal - effective tol. is 0)
 ! Best bound             : 22
 ! ----------------------------------------------------------------------------
 ! Number of branches     : 78667
 ! Number of fails        : 11559
 ! Total memory usage     : 9.7 MB (9.6 MB CP Optimizer + 0.1 MB Concert)
 ! Time spent in solve    : 0.70s (0.70s engine + 0.00s extraction)
 ! Search speed (br. / s) : 114010.1
 ! ----------------------------------------------------------------------------
task_0: (start=0, end=0, size=0, length=0)
Task 0 is scheduled in mode 0 from 0 to 0
task_1: (start=0, end=4, size=4, length=4)
Task 1 is scheduled in mode 0 from 0 to 4
task_2: (start=0, end=1, size=1, length=1)
Task 2 is scheduled in mode 0 from 0 to 1
task_3: (start=0, end=2, size=2, length=2)
Task 3 is scheduled in mode 0 from 0 to 2
task_4: (start=1, end=6, size=5, length=5)
Task 4 is scheduled in mode 1 from 1 to 6
task_5: (start=6, end=15, size=9, length=9)
Task 5 is scheduled in mode 2 from 6 to 15
task_6: (start=6, end=7, size=1, length=1)
Task 6 is scheduled in mode 0 from 6 to 7
task_7: (start=4, end=12, size=8, length=8)
Task 7 is scheduled in mode 2 from 4 to 12
task_8: (start=7, end=10, size=3, length=3)
Task 8 is scheduled in mode 1 from 7 to 10
task_9: (start=15, end=16, size=1, length=1)
Task 9 is scheduled in mode 0 from 15 to 16
task_10: (start=15, end=16, size=1, length=1)
Task 10 is scheduled in mode 0 from 15 to 16
task_11: (start=10, end=16, size=6, length=6)
Task 11 is scheduled in mode 0 from 10 to 16
task_12: (start=2, end=12, size=10, length=10)
Task 12 is scheduled in mode 1 from 2 to 12
task_13: (start=12, end=15, size=3, length=3)
Task 13 is scheduled in mode 0 from 12 to 15
task_14: (start=16, end=22, size=6, length=6)
Task 14 is scheduled in mode 1 from 16 to 22
task_15: (start=16, end=21, size=5, length=5)
Task 15 is scheduled in mode 1 from 16 to 21
task_16: (start=16, end=22, size=6, length=6)
Task 16 is scheduled in mode 2 from 16 to 22
task_17: (start=22, end=22, size=0, length=0)
Task 17 is scheduled in mode 0 from 22 to 22
Optimal solution found
Objective value: 22
Solution is optimal.
